language ESSENCE' 1.0
letting lastdx=95
letting cage be [
[15,12,2,0,0, 0,0, 0,0, 0,0],
[1,13,6,0,0, 0,0, 0,0, 0,0],
[49,9,15,8,15,8,14,8,13,0,0],
[45,16,11,16,12,15,12,15,13,0,0],
[7,11,2,0,0, 0,0, 0,0, 0,0],
[7,6,12,0,0, 0,0, 0,0, 0,0],
[40,9,6,10,6,10,5,0,0, 0,0],
[3,9,10,0,0, 0,0, 0,0, 0,0],
[11,12,14,0,0, 0,0, 0,0, 0,0],
[42,4,7,4,8,5,8,5,7,6,7],
[16,15,7,0,0, 0,0, 0,0, 0,0],
[13,8,16,0,0, 0,0, 0,0, 0,0],
[13,15,8,0,0, 0,0, 0,0, 0,0],
[16,4,9,0,0, 0,0, 0,0, 0,0],
[13,6,4,0,0, 0,0, 0,0, 0,0],
[2,9,9,0,0, 0,0, 0,0, 0,0],
[34,12,15,13,15,13,16,12,16,0,0],
[23,15,5,15,6,0,0, 0,0, 0,0],
[36,9,1,9,2,8,2,8,3,0,0],
[14,5,15,5,14,0,0, 0,0, 0,0],
[40,12,9,12,8,11,8,11,7,12,7],
[16,9,16,0,0, 0,0, 0,0, 0,0],
[15,5,10,0,0, 0,0, 0,0, 0,0],
[32,9,13,9,14,10,14,11,14,11,13],
[22,13,7,14,7,0,0, 0,0, 0,0],
[37,13,8,13,9,13,10,13,11,0,0],
[27,2,9,2,10,2,11,3,11,3,12],
[22,8,11,7,11,7,10,6,10,0,0],
[26,13,4,13,3,12,3,11,3,10,3],
[11,14,11,15,11,0,0, 0,0, 0,0],
[41,14,1,15,1,16,1,16,2,0,0],
[13,2,15,0,0, 0,0, 0,0, 0,0],
[7,14,10,0,0, 0,0, 0,0, 0,0],
[16,1,1,0,0, 0,0, 0,0, 0,0],
[36,6,1,7,1,8,1,7,2,0,0],
[9,9,12,8,12,0,0, 0,0, 0,0],
[17,10,1,10,2,0,0, 0,0, 0,0],
[39,5,16,4,16,4,15,3,15,0,0],
[22,15,9,14,9,14,8,0,0, 0,0],
[21,15,14,14,14,13,14,0,0, 0,0],
[15,14,6,0,0, 0,0, 0,0, 0,0],
[13,9,8,10,8,0,0, 0,0, 0,0],
[7,1,3,0,0, 0,0, 0,0, 0,0],
[36,11,10,10,10,10,9,11,9,0,0],
[60,12,12,11,12,11,11,12,11,12,10],
[38,2,13,2,12,1,12,1,11,0,0],
[5,4,4,0,0, 0,0, 0,0, 0,0],
[22,1,14,1,13,1,15,0,0, 0,0],
[3,14,5,0,0, 0,0, 0,0, 0,0],
[14,16,8,16,7,0,0, 0,0, 0,0],
[10,15,3,0,0, 0,0, 0,0, 0,0],
[35,11,6,11,5,12,5,12,6,13,5],
[21,3,8,3,9,0,0, 0,0, 0,0],
[4,10,7,0,0, 0,0, 0,0, 0,0],
[15,16,10,15,10,16,9,0,0, 0,0],
[12,14,16,0,0, 0,0, 0,0, 0,0],
[29,8,6,8,5,8,4,7,4,0,0],
[12,2,16,1,16,3,16,0,0, 0,0],
[18,16,4,16,3,0,0, 0,0, 0,0],
[35,3,14,2,14,3,13,4,14,0,0],
[19,6,14,6,13,0,0, 0,0, 0,0],
[11,4,5,4,6,3,6,3,5,0,0],
[40,16,15,15,15,14,15,15,16,16,16],
[14,1,4,0,0, 0,0, 0,0, 0,0],
[12,5,4,0,0, 0,0, 0,0, 0,0],
[23,13,2,14,2,15,2,0,0, 0,0],
[11,6,6,0,0, 0,0, 0,0, 0,0],
[13,7,6,0,0, 0,0, 0,0, 0,0],
[30,5,5,5,6,0,0, 0,0, 0,0],
[1,5,13,0,0, 0,0, 0,0, 0,0],
[20,12,1,11,1,13,1,0,0, 0,0],
[20,2,7,3,7,0,0, 0,0, 0,0],
[3,3,2,0,0, 0,0, 0,0, 0,0],
[2,2,4,0,0, 0,0, 0,0, 0,0],
[40,2,5,1,5,1,6,2,6,1,7],
[46,3,4,3,3,4,3,4,2,5,3],
[33,7,16,7,15,6,15,6,16,0,0],
[35,2,2,1,2,2,1,2,3,0,0],
[17,16,14,16,13,0,0, 0,0, 0,0],
[28,1,8,2,8,0,0, 0,0, 0,0],
[15,1,9,1,10,0,0, 0,0, 0,0],
[33,5,11,5,12,6,11,0,0, 0,0],
[20,6,3,7,3,0,0, 0,0, 0,0],
[20,6,5,7,5,0,0, 0,0, 0,0],
[32,7,9,8,9,8,10,0,0, 0,0],
[10,7,12,0,0, 0,0, 0,0, 0,0],
[12,7,13,7,14,0,0, 0,0, 0,0],
[13,9,3,0,0, 0,0, 0,0, 0,0],
[24,9,4,9,5,0,0, 0,0, 0,0],
[39,9,11,10,11,10,12,10,13,0,0],
[33,10,4,11,4,12,4,0,0, 0,0],
[23,10,15,10,16,11,16,11,15,0,0],
[38,12,13,13,13,13,12,0,0, 0,0],
[24,14,3,14,4,15,4,0,0, 0,0],
[11,14,12,14,13,0,0, 0,0, 0,0],
[10,16,5,16,6,0,0, 0,0, 0,0]
]
